s td 13 38 50
b 1 1 3 4 5 6 7 8 9 10 12 14 16 18 19 20 21 23 24 25 26 27 28 29 30 32 34 35 37 39 40 41 42 43 44 45 46 47 49
b 2 3 4 5 6 7 8 9 10 12 14 16 18 19 20 21 23 24 25 26 27 28 29 30 32 34 35 37 39 40 41 42 43 44 45 46 47 48 49
b 3 3 4 6 7 8 9 10 12 14 16 18 20 21 22 23 24 25 26 27 28 29 30 32 34 35 37 39 40 41 42 43 44 45 46 47 48 49
b 4 3 4 6 7 9 10 12 14 16 18 20 21 22 23 24 25 26 27 28 29 30 32 34 35 36 37 39 40 41 42 44 45 46 47 48 49
b 5 3 4 6 7 9 10 12 13 14 16 18 20 21 23 24 25 26 27 28 29 30 32 34 35 36 37 41 42 44 45 46 47 48 49
b 6 3 4 6 7 9 12 13 14 15 16 18 20 21 23 25 26 27 28 29 30 32 34 35 36 37 41 42 44 46 47 48 49
b 7 2 4 6 7 12 15 18 20 21 23 25 27 28 29 30 32 34 35 36 37 41 46 47 48 49
b 8 1 3 4 5 6 7 8 9 10 12 14 16 18 19 20 21 23 24 25 26 27 28 30 32 33 34 35 37 39 40 41 42 43 44 45 46 47 49
b 9 1 3 4 5 6 7 8 9 10 12 14 16 18 19 20 21 23 24 25 27 28 30 32 33 34 35 37 38 39 40 41 42 43 44 45 46 47 49
b 10 1 3 7 8 11 12 16 18 19 20 24 25 27 33 37 38 39 42 43 45 46 49
b 11 1 3 4 5 6 7 8 9 10 14 18 19 20 21 23 24 25 27 30 31 32 33 34 35 37 38 39 40 41 42 43 44 45 46 47 49
b 12 3 4 7 8 9 10 14 17 18 19 20 21 23 24 25 30 31 32 33 34 35 37 38 39 40 41 42 43 44 45 46 47 49
b 13 3 10 14 17 20 21 23 24 25 30 32 33 34 37 38 39 40 41 46 47 49 50
1 2
1 8
2 3
3 4
4 5
5 6
6 7
8 9
9 10
9 11
11 12
12 13
